c description: Random 2-CNF over 15 variables and 15 clauses
c generator: CNFgen (0.9.0)
c copyright: (C) 2012-2020 Massimo Lauria <massimo.lauria@uniroma1.it>
c url: https://massimolauria.net/cnfgen
c
p cnf 15 15
7 8 0
-13 -15 0
4 -11 0
-2 -13 0
3 12 0
-3 15 0
-12 14 0
1 7 0
6 11 0
-8 -12 0
14 -15 0
4 5 0
4 -7 0
1 5 0
4 8 0